% demand
num_movements = 27;
loading_factor = [900, 1900, 1800, 1850, 1400, 1800, 2000, 1300, 900, 1700, 850, 1250, 1250, 1050, 1150, 1750, 1300, 1800, 1850, 850, 1600, 900, 2000, 1800, 1750, 1150, 1800];
pickup_time = [0, 0, 0, 0, 1, 4, 4, 4, 5, 5, 5, 5, 5, 5, 7, 7, 7, 8, 8, 9, 9, 9, 10, 11, 12, 12, 13];
delivery_time = [3, 2, 1, 3, 2, 5, 5, 5, 8, 7, 8, 7, 7, 8, 8, 8, 8, 9, 9, 10, 11, 10, 12, 14, 14, 14, 14];

% transporter definition
total_capacity = 7000;
num_decks = 3;
capacity = [3000, 1000, 3000];

% ways out of decks
num_ways_out = 1;
paths_out = array3d(decks, ways_out, decks, [
% ways out of deck d1
2, 3, 0, 

% ways out of deck d2
3, 0, 0, 

% ways out of deck d3
0, 0, 0,	

]);

